c turning on binary mode checking
c parsing input formula with 259840 variables and 1039924 clauses
c finished parsing, read 27662396 bytes from proof file
c detected empty clause; start verification via backward checking
c 24204 of 1039924 clauses in core                            
c 39440 of 668766 lemmas in core using 501178 resolution steps
c 0 RAT lemmas in core; 5376 redundant literals in core lemmas
s VERIFIED
c verification time: 4.077 seconds
